 10	67
  8
  0	 60	  8	 16	 75	127	 83	135	
 16
  0	 21	 11	  5	 88	 31	 72	 78	 54	 20	121	 98	 24	 87	 91	135	
 18
  0	  9	 61	128	 15	 82	 76	 58	125	  4	 19	 17	 25	 71	 84	 86	 92	135	
 12
  0	 38	105	 23	 49	 48	 90	  7	 74	115	116	135	
 12
  0	 29	 37	 59	104	 96	126	  2	 18	 85	 69	135	
 24
  0	 57	 27	 36	 13	 45	 80	112	103	 94	124	 35	 52	 63	 33	119	 34	101	 40	100	102	107	130	135	
 18
  0	 26	 66	 93	 12	133	 32	 79	 46	 99	 67	  6	 10	113	134	 77	 73	135	
 16
  0	 44	  1	111	 56	 68	 22	123	 65	 30	132	 53	 89	120	 97	135	
 12
  0	 43	 62	 55	 28	 95	110	 42	122	109	129	135	
 18
  0	 64	 50	131	 39	 14	117	106	 51	 81	 47	118	  3	114	 70	 41	108	135	
